Maximize
  4.9998174950276479e-04 Z_569_0_0 + 0.0482909131535401 Z_569_0_1
   + 0.3731144584167899 Z_569_0_2 + 0.00779720320802839 Z_569_0_3
   + 0.0179411463188612 Z_325_0_0 + 0.7509071463711453 Z_325_0_1
   + 0.0155093135340122 Z_325_0_2 + 0.0889769824835976 Z_325_0_3
   + 0.0184635402206786 Z_65_0_0 + 0.6167384026148102 Z_65_0_1
   + 0.0294136574639614 Z_65_0_2 + 0.2307772297037153 Z_65_0_3
   + 0.00834521112715477 Z_387_0_0 + 0.1100184833715883 Z_387_0_1
   + 0.0104730191600286 Z_387_0_2 + 0.0389949719166228 Z_387_0_3
   + 0.0211179970876167 Z_450_0_0 + 0.0608583661126065 Z_450_0_1
   + 0.1694368031409013 Z_450_0_2 + 0.0408421929728876 Z_450_0_3
   + 0.00814441279965765 Z_406_0_0 + 0.017950607327963 Z_406_0_1
   + 0.6173139741480042 Z_406_0_2 + 0.0151467047741543 Z_406_0_3
   + 0.00845324501268027 Z_499_0_0 + 0.0129493990317833 Z_499_0_1
   + 0.6167741071666506 Z_499_0_2 + 0.0134389148925555 Z_499_0_3
   + 0.00989968410802563 Z_441_0_0 + 0.1322159446895114 Z_441_0_1
   + 0.00785019618552889 Z_441_0_2 + 0.0313811325427885 Z_441_0_3
   + 0.0836454867891727 Z_300_0_0 + 0.0728724032157215 Z_300_0_1
   + 0.00964625461217968 Z_300_0_2 + 0.0285414292011801 Z_300_0_3
   + 0.0879387192600034 Z_276_0_0 + 0.7501631878529167 Z_276_0_1
   + 0.00652462562443443 Z_276_0_2 + 0.0312866969988373 Z_276_0_3
   + 0.0455614772973709 Z_335_0_0 + 0.495458967669776 Z_335_0_1
   + 0.027321081199295 Z_335_0_2 + 0.00292751818868067 Z_335_0_3
   + 0.0258780929209619 Z_566_8_0 + 0.0337022985181004 Z_566_8_1
   + 0.1417474079230397 Z_566_8_2 + 0.0342585238141935 Z_566_8_3
   + 0.00640779022300554 Z_566_1_0 + 0.0115955004129638 Z_566_1_1
   + 0.00715760198882981 Z_566_1_2 + 0.0229639292139552 Z_566_1_3
   + 0.0697566515803089 Z_566_5_0 + 0.1517385315947748 Z_566_5_1
   + 0.010526017569316 Z_566_5_2 + 0.00178632533390754 Z_566_5_3
   + 0.0258243686944502 Z_566_2_0 + 0.0617729773961441 Z_566_2_1
   + 0.00305212360086345 Z_566_2_2 + 0.0155759833118658 Z_566_2_3
   + 0.1268943521960212 Z_566_7_0 + 0.1333952204447843 Z_566_7_1
   + 0.00142234889720065 Z_566_7_2 + 0.0669540087058771 Z_566_7_3
   + 5.5720171713045106e-04 Z_566_4_0 + 0.0313739278962895 Z_566_4_1
   + 0.2182093340704024 Z_566_4_2 + 0.0108194659093316 Z_566_4_3
   + 0.1377238688209963 Z_566_6_0 + 0.3022555832729413 Z_566_6_1
   + 0.00250139855634233 Z_566_6_2 + 0.2104115776747432 Z_566_6_3
   + 5.5720171713045106e-04 Z_566_3_0 + 0.0313739278962895 Z_566_3_1
   + 0.2182093340704024 Z_566_3_2 + 0.0108194659093316 Z_566_3_3
   + 0.1377238688209963 Z_566_0_0 + 0.3022555832729413 Z_566_0_1
   + 0.00250139855634233 Z_566_0_2 + 0.2104115776747432 Z_566_0_3 + [
   0.0506219578150351 Z_569_0_0 * Z_499_0_0
   + 0.0506219578150351 Z_569_0_0 * Z_566_5_0 + 0.025 Z_569_0_0 * Z_566_2_0
   + 0.0506219578150351 Z_569_0_0 * Z_566_3_0
   + 0.0506219578150351 Z_569_0_1 * Z_499_0_1
   + 0.0506219578150351 Z_569_0_1 * Z_566_5_1 + 0.025 Z_569_0_1 * Z_566_2_1
   + 0.0506219578150351 Z_569_0_1 * Z_566_3_1
   + 0.0506219578150351 Z_569_0_2 * Z_499_0_2
   + 0.0506219578150351 Z_569_0_2 * Z_566_5_2 + 0.025 Z_569_0_2 * Z_566_2_2
   + 0.0506219578150351 Z_569_0_2 * Z_566_3_2
   + 0.0506219578150351 Z_569_0_3 * Z_499_0_3
   + 0.0506219578150351 Z_569_0_3 * Z_566_5_3 + 0.025 Z_569_0_3 * Z_566_2_3
   + 0.0506219578150351 Z_569_0_3 * Z_566_3_3
   + 0.00265875538644777 Z_325_0_0 * Z_65_0_0 + 0.4 Z_325_0_0 * Z_387_0_0
   + 0.0099053779117718 Z_325_0_0 * Z_450_0_0
   + 0.000139311 Z_325_0_0 * Z_499_0_0
   + 0.064365864120085 Z_325_0_0 * Z_441_0_0
   + 0.010661818653855 Z_325_0_0 * Z_276_0_0
   + 0.1453311820400712 Z_325_0_0 * Z_566_5_0
   + 0.0745501403356623 Z_325_0_0 * Z_566_2_0
   + 0.00294705458532054 Z_325_0_0 * Z_566_7_0
   + 0.025 Z_325_0_0 * Z_566_4_0 + 0.00092396 Z_325_0_0 * Z_566_6_0
   + 0.0179528029126548 Z_325_0_0 * Z_566_3_0
   + 0.00294705458532054 Z_325_0_0 * Z_566_0_0
   + 0.00265875538644777 Z_325_0_1 * Z_65_0_1 + 0.4 Z_325_0_1 * Z_387_0_1
   + 0.0099053779117718 Z_325_0_1 * Z_450_0_1
   + 0.000139311 Z_325_0_1 * Z_499_0_1
   + 0.064365864120085 Z_325_0_1 * Z_441_0_1
   + 0.010661818653855 Z_325_0_1 * Z_276_0_1
   + 0.1453311820400712 Z_325_0_1 * Z_566_5_1
   + 0.0745501403356623 Z_325_0_1 * Z_566_2_1
   + 0.00294705458532054 Z_325_0_1 * Z_566_7_1
   + 0.025 Z_325_0_1 * Z_566_4_1 + 0.00092396 Z_325_0_1 * Z_566_6_1
   + 0.0179528029126548 Z_325_0_1 * Z_566_3_1
   + 0.00294705458532054 Z_325_0_1 * Z_566_0_1
   + 0.00265875538644777 Z_325_0_2 * Z_65_0_2 + 0.4 Z_325_0_2 * Z_387_0_2
   + 0.0099053779117718 Z_325_0_2 * Z_450_0_2
   + 0.000139311 Z_325_0_2 * Z_499_0_2
   + 0.064365864120085 Z_325_0_2 * Z_441_0_2
   + 0.010661818653855 Z_325_0_2 * Z_276_0_2
   + 0.1453311820400712 Z_325_0_2 * Z_566_5_2
   + 0.0745501403356623 Z_325_0_2 * Z_566_2_2
   + 0.00294705458532054 Z_325_0_2 * Z_566_7_2
   + 0.025 Z_325_0_2 * Z_566_4_2 + 0.00092396 Z_325_0_2 * Z_566_6_2
   + 0.0179528029126548 Z_325_0_2 * Z_566_3_2
   + 0.00294705458532054 Z_325_0_2 * Z_566_0_2
   + 0.00265875538644777 Z_325_0_3 * Z_65_0_3 + 0.4 Z_325_0_3 * Z_387_0_3
   + 0.0099053779117718 Z_325_0_3 * Z_450_0_3
   + 0.000139311 Z_325_0_3 * Z_499_0_3
   + 0.064365864120085 Z_325_0_3 * Z_441_0_3
   + 0.010661818653855 Z_325_0_3 * Z_276_0_3
   + 0.1453311820400712 Z_325_0_3 * Z_566_5_3
   + 0.0745501403356623 Z_325_0_3 * Z_566_2_3
   + 0.00294705458532054 Z_325_0_3 * Z_566_7_3
   + 0.025 Z_325_0_3 * Z_566_4_3 + 0.00092396 Z_325_0_3 * Z_566_6_3
   + 0.0179528029126548 Z_325_0_3 * Z_566_3_3
   + 0.00294705458532054 Z_325_0_3 * Z_566_0_3 + 0.1 Z_65_0_0 * Z_566_4_0
   + 0.0987137539230663 Z_65_0_0 * Z_566_3_0
   + 0.0987137539230663 Z_65_0_0 * Z_566_0_0 + 0.1 Z_65_0_1 * Z_566_4_1
   + 0.0987137539230663 Z_65_0_1 * Z_566_3_1
   + 0.0987137539230663 Z_65_0_1 * Z_566_0_1 + 0.1 Z_65_0_2 * Z_566_4_2
   + 0.0987137539230663 Z_65_0_2 * Z_566_3_2
   + 0.0987137539230663 Z_65_0_2 * Z_566_0_2 + 0.1 Z_65_0_3 * Z_566_4_3
   + 0.0987137539230663 Z_65_0_3 * Z_566_3_3
   + 0.0987137539230663 Z_65_0_3 * Z_566_0_3
   + 0.00816326530612245 Z_387_0_0 * Z_566_7_0
   + 0.00816326530612245 Z_387_0_0 * Z_566_6_0
   + 0.00816326530612245 Z_387_0_0 * Z_566_3_0
   + 0.00816326530612245 Z_387_0_0 * Z_566_0_0
   + 0.00816326530612245 Z_387_0_1 * Z_566_7_1
   + 0.00816326530612245 Z_387_0_1 * Z_566_6_1
   + 0.00816326530612245 Z_387_0_1 * Z_566_3_1
   + 0.00816326530612245 Z_387_0_1 * Z_566_0_1
   + 0.00816326530612245 Z_387_0_2 * Z_566_7_2
   + 0.00816326530612245 Z_387_0_2 * Z_566_6_2
   + 0.00816326530612245 Z_387_0_2 * Z_566_3_2
   + 0.00816326530612245 Z_387_0_2 * Z_566_0_2
   + 0.00816326530612245 Z_387_0_3 * Z_566_7_3
   + 0.00816326530612245 Z_387_0_3 * Z_566_6_3
   + 0.00816326530612245 Z_387_0_3 * Z_566_3_3
   + 0.00816326530612245 Z_387_0_3 * Z_566_0_3
   + 0.0273333333333333 Z_450_0_0 * Z_406_0_0
   + 0.0273333333333333 Z_450_0_1 * Z_406_0_1
   + 0.0273333333333333 Z_450_0_2 * Z_406_0_2
   + 0.0273333333333333 Z_450_0_3 * Z_406_0_3
   + 0.00105968858131488 Z_406_0_0 * Z_566_4_0
   + 7.83272e-05 Z_406_0_0 * Z_566_3_0
   + 0.00105968858131488 Z_406_0_1 * Z_566_4_1
   + 7.83272e-05 Z_406_0_1 * Z_566_3_1
   + 0.00105968858131488 Z_406_0_2 * Z_566_4_2
   + 7.83272e-05 Z_406_0_2 * Z_566_3_2
   + 0.00105968858131488 Z_406_0_3 * Z_566_4_3
   + 7.83272e-05 Z_406_0_3 * Z_566_3_3 + 0.4 Z_499_0_0 * Z_566_5_0
   + 0.05625 Z_499_0_0 * Z_566_2_0
   + 0.012107091044973 Z_499_0_0 * Z_566_4_0 + 0.4 Z_499_0_0 * Z_566_3_0
   + 0.4 Z_499_0_1 * Z_566_5_1 + 0.05625 Z_499_0_1 * Z_566_2_1
   + 0.012107091044973 Z_499_0_1 * Z_566_4_1 + 0.4 Z_499_0_1 * Z_566_3_1
   + 0.4 Z_499_0_2 * Z_566_5_2 + 0.05625 Z_499_0_2 * Z_566_2_2
   + 0.012107091044973 Z_499_0_2 * Z_566_4_2 + 0.4 Z_499_0_2 * Z_566_3_2
   + 0.4 Z_499_0_3 * Z_566_5_3 + 0.05625 Z_499_0_3 * Z_566_2_3
   + 0.012107091044973 Z_499_0_3 * Z_566_4_3 + 0.4 Z_499_0_3 * Z_566_3_3
   + 0.00236686390532544 Z_441_0_0 * Z_566_4_0
   + 1.7494739525792476e-04 Z_441_0_0 * Z_566_3_0
   + 0.00236686390532544 Z_441_0_1 * Z_566_4_1
   + 1.7494739525792476e-04 Z_441_0_1 * Z_566_3_1
   + 0.00236686390532544 Z_441_0_2 * Z_566_4_2
   + 1.7494739525792476e-04 Z_441_0_2 * Z_566_3_2
   + 0.00236686390532544 Z_441_0_3 * Z_566_4_3
   + 1.7494739525792476e-04 Z_441_0_3 * Z_566_3_3 ] / 2 
Subject To
 constraint1_5690: Z_569_0_0 + Z_569_0_1 + Z_569_0_2 + Z_569_0_3 <= 1
 constraint1_3250: Z_325_0_0 + Z_325_0_1 + Z_325_0_2 + Z_325_0_3 <= 1
 constraint1_650: Z_65_0_0 + Z_65_0_1 + Z_65_0_2 + Z_65_0_3 <= 1
 constraint1_3870: Z_387_0_0 + Z_387_0_1 + Z_387_0_2 + Z_387_0_3 <= 1
 constraint1_4500: Z_450_0_0 + Z_450_0_1 + Z_450_0_2 + Z_450_0_3 <= 1
 constraint1_4060: Z_406_0_0 + Z_406_0_1 + Z_406_0_2 + Z_406_0_3 <= 1
 constraint1_4990: Z_499_0_0 + Z_499_0_1 + Z_499_0_2 + Z_499_0_3 <= 1
 constraint1_4410: Z_441_0_0 + Z_441_0_1 + Z_441_0_2 + Z_441_0_3 <= 1
 constraint1_3000: Z_300_0_0 + Z_300_0_1 + Z_300_0_2 + Z_300_0_3 <= 1
 constraint1_2760: Z_276_0_0 + Z_276_0_1 + Z_276_0_2 + Z_276_0_3 <= 1
 constraint1_3350: Z_335_0_0 + Z_335_0_1 + Z_335_0_2 + Z_335_0_3 <= 1
 constraint1_5668: Z_566_8_0 + Z_566_8_1 + Z_566_8_2 + Z_566_8_3 <= 1
 constraint1_5661: Z_566_1_0 + Z_566_1_1 + Z_566_1_2 + Z_566_1_3 <= 1
 constraint1_5665: Z_566_5_0 + Z_566_5_1 + Z_566_5_2 + Z_566_5_3 <= 1
 constraint1_5662: Z_566_2_0 + Z_566_2_1 + Z_566_2_2 + Z_566_2_3 <= 1
 constraint1_5667: Z_566_7_0 + Z_566_7_1 + Z_566_7_2 + Z_566_7_3 <= 1
 constraint1_5664: Z_566_4_0 + Z_566_4_1 + Z_566_4_2 + Z_566_4_3 <= 1
 constraint1_5666: Z_566_6_0 + Z_566_6_1 + Z_566_6_2 + Z_566_6_3 <= 1
 constraint1_5663: Z_566_3_0 + Z_566_3_1 + Z_566_3_2 + Z_566_3_3 <= 1
 constraint1_5660: Z_566_0_0 + Z_566_0_1 + Z_566_0_2 + Z_566_0_3 <= 1
 constraint2_5690: Z_569_0_0 <= 1
 constraint2_5691: Z_569_0_1 <= 1
 constraint2_5692: Z_569_0_2 <= 1
 constraint2_5693: Z_569_0_3 <= 1
 constraint2_3250: Z_325_0_0 <= 1
 constraint2_3251: Z_325_0_1 <= 1
 constraint2_3252: Z_325_0_2 <= 1
 constraint2_3253: Z_325_0_3 <= 1
 constraint2_650: Z_65_0_0 <= 1
 constraint2_651: Z_65_0_1 <= 1
 constraint2_652: Z_65_0_2 <= 1
 constraint2_653: Z_65_0_3 <= 1
 constraint2_3870: Z_387_0_0 <= 1
 constraint2_3871: Z_387_0_1 <= 1
 constraint2_3872: Z_387_0_2 <= 1
 constraint2_3873: Z_387_0_3 <= 1
 constraint2_4500: Z_450_0_0 <= 1
 constraint2_4501: Z_450_0_1 <= 1
 constraint2_4502: Z_450_0_2 <= 1
 constraint2_4503: Z_450_0_3 <= 1
 constraint2_4060: Z_406_0_0 <= 1
 constraint2_4061: Z_406_0_1 <= 1
 constraint2_4062: Z_406_0_2 <= 1
 constraint2_4063: Z_406_0_3 <= 1
 constraint2_4990: Z_499_0_0 <= 1
 constraint2_4991: Z_499_0_1 <= 1
 constraint2_4992: Z_499_0_2 <= 1
 constraint2_4993: Z_499_0_3 <= 1
 constraint2_4410: Z_441_0_0 <= 1
 constraint2_4411: Z_441_0_1 <= 1
 constraint2_4412: Z_441_0_2 <= 1
 constraint2_4413: Z_441_0_3 <= 1
 constraint2_3000: Z_300_0_0 <= 1
 constraint2_3001: Z_300_0_1 <= 1
 constraint2_3002: Z_300_0_2 <= 1
 constraint2_3003: Z_300_0_3 <= 1
 constraint2_2760: Z_276_0_0 <= 1
 constraint2_2761: Z_276_0_1 <= 1
 constraint2_2762: Z_276_0_2 <= 1
 constraint2_2763: Z_276_0_3 <= 1
 constraint2_3350: Z_335_0_0 <= 1
 constraint2_3351: Z_335_0_1 <= 1
 constraint2_3352: Z_335_0_2 <= 1
 constraint2_3353: Z_335_0_3 <= 1
 constraint2_5660: Z_566_8_0 + Z_566_1_0 + Z_566_5_0 + Z_566_2_0
   + Z_566_7_0 + Z_566_4_0 + Z_566_6_0 + Z_566_3_0 + Z_566_0_0 <= 1
 constraint2_5661: Z_566_8_1 + Z_566_1_1 + Z_566_5_1 + Z_566_2_1
   + Z_566_7_1 + Z_566_4_1 + Z_566_6_1 + Z_566_3_1 + Z_566_0_1 <= 1
 constraint2_5662: Z_566_8_2 + Z_566_1_2 + Z_566_5_2 + Z_566_2_2
   + Z_566_7_2 + Z_566_4_2 + Z_566_6_2 + Z_566_3_2 + Z_566_0_2 <= 1
 constraint2_5663: Z_566_8_3 + Z_566_1_3 + Z_566_5_3 + Z_566_2_3
   + Z_566_7_3 + Z_566_4_3 + Z_566_6_3 + Z_566_3_3 + Z_566_0_3 <= 1
Bounds
Binaries
 Z_569_0_0 Z_569_0_1 Z_569_0_2 Z_569_0_3 Z_325_0_0 Z_325_0_1 Z_325_0_2
 Z_325_0_3 Z_65_0_0 Z_65_0_1 Z_65_0_2 Z_65_0_3 Z_387_0_0 Z_387_0_1
 Z_387_0_2 Z_387_0_3 Z_450_0_0 Z_450_0_1 Z_450_0_2 Z_450_0_3 Z_406_0_0
 Z_406_0_1 Z_406_0_2 Z_406_0_3 Z_499_0_0 Z_499_0_1 Z_499_0_2 Z_499_0_3
 Z_441_0_0 Z_441_0_1 Z_441_0_2 Z_441_0_3 Z_300_0_0 Z_300_0_1 Z_300_0_2
 Z_300_0_3 Z_276_0_0 Z_276_0_1 Z_276_0_2 Z_276_0_3 Z_335_0_0 Z_335_0_1
 Z_335_0_2 Z_335_0_3 Z_566_8_0 Z_566_8_1 Z_566_8_2 Z_566_8_3 Z_566_1_0
 Z_566_1_1 Z_566_1_2 Z_566_1_3 Z_566_5_0 Z_566_5_1 Z_566_5_2 Z_566_5_3
 Z_566_2_0 Z_566_2_1 Z_566_2_2 Z_566_2_3 Z_566_7_0 Z_566_7_1 Z_566_7_2
 Z_566_7_3 Z_566_4_0 Z_566_4_1 Z_566_4_2 Z_566_4_3 Z_566_6_0 Z_566_6_1
 Z_566_6_2 Z_566_6_3 Z_566_3_0 Z_566_3_1 Z_566_3_2 Z_566_3_3 Z_566_0_0
 Z_566_0_1 Z_566_0_2 Z_566_0_3
End
